(set-logic QF_S)
(declare-fun var0 () String)
(declare-fun var1 () String)
(declare-fun var2 () String)
(declare-fun var3 () String)
(declare-fun var4 () String)
(declare-fun var5 () Int)
(declare-fun var6 () Int)
(declare-fun var7 () Int)
(declare-fun var8 () Int)
(declare-fun var9 () Int)
(declare-fun var10 () Bool)
(declare-fun var11 () Bool)
(declare-fun var12 () Bool)
(declare-fun var13 () Bool)
(declare-fun var14 () Bool)
(assert (str.suffixof var4 var3))
(assert (<= (str.indexof var2 var0 var7) (str.len var3)))
(assert (str.in.re var2 re.allchar))
(assert (str.contains (str.substr var3 var7 var8) (str.substr var2 var6 var5)))
(assert (>= var8 var8))
(assert (str.prefixof (str.at var0 4) (str.replace var3 var0 var2)))
(assert (str.in.re (str.replace var4 var1 var2) (re.* re.allchar)))
(assert (< (str.indexof var4 var3 var5) (str.indexof var2 var1 var9)))
(assert (str.suffixof (str.substr var2 var8 var5) (str.substr var1 var7 var5)))
(assert (str.suffixof (str.at var3 var7) (str.replace var0 var4 "qZCrP?DV*7")))
(check-sat)
